/* Objective function */
max: ;

/* Constraints */
R1: +x32 <= 0;
R2: +x9 <= 0;
R3: +x14 <= 0;
R4: +x14 <= 0;
R5: +x33 <= 0;
R6: +x10 <= 0;
R7: +x4 <= 0;
R8: +x1 <= 0;
+x34 +x35 <= 0;
R10: +x15 <= 0;
R11: +x5 <= 0;
R12: +x36 <= 0;
R13: +x6 <= 0;
R14: +x13 <= 0;
R15: +x10 <= 0;
R16: +x1 <= 0;
R17: +x13 <= 0;
R18: +x6 <= 0;
R19: +x10 <= 0;
R20: +x5 <= 0;
R21: +x4 <= 0;
R22: +x15 <= 0;
R23: +x37 <= 0;
R24: +x17 <= 0;
R25: +x16 <= 0;
R26: +x16 <= 0;
R27: +x17 <= 0;
R28: +x7 <= 0;
R29: +x7 <= 0;
R30: +x18 <= 0;
R31: +x7 <= 0;
R32: +x7 <= 0;
R33: +x18 <= 0;
R34: +x11 <= 0;
R35: +x2 <= 0;
+x2 +x11 +x19 <= 0;
R37: +x2 <= 0;
R38: +x20 <= 0;
R39: +x2 <= 0;
R40: +x11 <= 0;
R41: +x19 <= 0;
R42: +x2 <= 0;
R43: +x20 <= 0;
R44: +x5 <= 0;
R45: +x5 <= 0;
R46: +x9 <= 0;
R47: +x9 <= 0;
+x21 +x22 <= 0;
R49: +x21 <= 0;
R50: +x22 <= 0;
R51: +x4 <= 0;
+x12 +x24 <= 0;
+x24 +x38 <= 0;
+x12 +x23 <= 0;
R55: +x23 <= 0;
R56: +x12 <= 0;
R57: +x39 <= 0;
R58: +x40 <= 0;
R59: +x4 <= 0;
R60: +x25 <= 0;
R61: +x26 <= 0;
R62: +x3 <= 0;
+x3 +x25 <= 0;
R64: +x3 <= 0;
R65: +x3 <= 0;
R66: +x3 <= 0;
R67: +x26 <= 0;
R68: +x8 <= 0;
R69: +x28 <= 0;
+x8 +x27 <= 0;
R71: +x27 <= 0;
R72: +x8 <= 0;
+x8 +x41 <= 0;
R74: +x28 <= 0;
R75: +x1 <= 0;
R76: +x1 <= 0;
R77: +x1 <= 0;
R78: +x1 <= 0;
0 x1 <= 0;
R80: +x29 <= 0;
0 x1 <= 1;
R82: +x29 <= 0;
0 x1 <= 0;
R84: +x6 <= 0;
R85: +x6 <= 0;
+x30 +x31 <= 0;
R87: +x30 <= 0;
R88: +x31 <= 0;
R89: +x32 >= 0;
R90: +x9 >= 0;
R91: +x9 >= 0;
R92: +x14 >= 0;
R93: +x28 >= 0;
R94: +x26 >= 0;
R95: +x4 >= 0;
R96: +x1 >= 0;
R97: +x17 >= 0;
R98: +x35 >= 0;
+x5 +x20 >= 0;
R100: +x18 >= 0;
R101: +x6 >= 0;
R102: +x1 >= 0;
R103: +x4 >= 0;
R104: +x6 >= 0;
R105: +x18 >= 0;
R106: +x28 >= 0;
R107: +x35 >= 0;
R108: +x26 >= 0;
R109: +x17 >= 0;
R110: +x34 >= 0;
R111: +x16 >= 0;
R112: +x16 >= 0;
R113: +x37 >= 0;
R114: +x34 >= 0;
R115: +x7 >= 0;
R116: +x36 >= 0;
R117: +x7 >= 0;
R118: +x7 >= 0;
R119: +x7 >= 0;
R120: +x36 >= 0;
R121: +x11 >= 0;
+x2 +x19 >= 0;
R123: +x15 >= 0;
+x2 +x19 >= 0;
+x2 +x11 >= 0;
+x2 +x19 >= 0;
R127: +x11 >= 0;
R128: +x19 >= 0;
+x2 +x19 >= 0;
R130: +x15 >= 0;
R131: +x5 >= 0;
R132: +x5 >= 0;
R133: +x9 >= 0;
+x21 +x22 >= 0;
R135: +x9 >= 0;
R136: +x21 >= 0;
R137: +x22 >= 0;
+x12 +x23 >= 0;
R139: +x24 >= 0;
R140: +x4 >= 0;
+x24 +x38 >= 0;
R142: +x38 >= 0;
R143: +x24 >= 0;
R144: +x4 >= 0;
R145: +x39 >= 0;
R146: +x40 >= 0;
R147: +x25 >= 0;
+x3 +x25 >= 0;
R149: +x3 >= 0;
R150: +x10 >= 0;
R151: +x3 >= 0;
R152: +x3 >= 0;
R153: +x3 >= 0;
R154: +x10 >= 0;
R155: +x8 >= 0;
+x8 +x27 >= 0;
R157: +x33 >= 0;
+x27 +x41 >= 0;
R159: +x8 >= 0;
R160: +x8 >= 0;
R161: +x33 >= 0;
R162: +x1 >= 0;
R163: +x1 >= 0;
R164: +x1 >= 0;
R165: +x1 >= 0;
0 x1 >= 1;
R167: +x13 >= 0;
R168: +x29 >= 0;
R169: +x29 >= 0;
R170: +x13 >= 0;
R171: +x6 >= 0;
+x30 +x31 >= 0;
R173: +x6 >= 0;
R174: +x30 >= 0;
R175: +x31 >= 0;
R176: +x1 >= 0;
R177: +x2 >= 0;
R178: +x3 >= 0;
R179: +x4 >= 0;
R180: +x5 >= 0;
R181: +x6 >= 0;
R182: +x7 >= 0;
R183: +x8 >= 0;
R184: +x9 >= 0;
R185: +x10 >= 0;
R186: +x11 >= 0;
R187: +x12 >= 0;
R188: +x13 >= 0;
R189: +x14 >= 0;
R190: +x15 >= 0;
R191: +x16 >= 0;
R192: +x17 >= 0;
R193: +x18 >= 0;
R194: +x19 >= 0;
R195: +x20 >= 0;
R196: +x21 >= 0;
R197: +x22 >= 0;
R198: +x23 >= 0;
R199: +x24 >= 0;
R200: +x25 >= 0;
R201: +x26 >= 0;
R202: +x27 >= 0;
R203: +x28 >= 0;
R204: +x29 >= 0;
R205: +x30 >= 0;
R206: +x31 >= 0;
R207: +x32 >= 0;
R208: +x33 >= 0;
R209: +x34 >= 0;
R210: +x35 >= 0;
R211: +x36 >= 0;
R212: +x37 >= 0;
R213: +x38 >= 0;
R214: +x39 >= 0;
R215: +x40 >= 0;
R216: +x41 >= 0;
